data/solutions/planning/wellformed/moderate/weighting/wellformed_moderate_instance35_cplex.sol
Elapsed time: 1.34
Nodes explored: 8495
Nodes left: 2137
Relative gap: 0.007
Upper bound: 106594.0
Lower bound: 106587
C[0]=7107.0
C[1]=7106.0
C[2]=7105.0
C[3]=7104.0
y[0]=0
y[1]=3
y[2]=1
y[3]=1
y[4]=3
y[5]=2
y[6]=2
y[7]=2
y[8]=1
y[9]=0
y[10]=0
y[11]=0
y[12]=0
y[13]=1
y[14]=0
y[15]=2
y[16]=3
y[17]=2
y[18]=3
y[19]=3
y[20]=3
y[21]=1
y[22]=1
y[23]=3
y[24]=3
y[25]=2
y[26]=0
y[27]=2
y[28]=1
y[29]=3
