data/solutions/planning/wellformed/moderate/weighting/wellformed_moderate_instance35_cplex.log

Log started (V12.6.3.0) Fri Mar  2 12:43:47 2018

New value for default parallel thread count: 1

Problem '/tmp/tmpiBpqOz.pyomo.lp' read.
Read time = 0.00 sec. (0.01 ticks)

Problem name         : /tmp/tmpiBpqOz.pyomo.lp
Objective sense      : Minimize
Variables            :     125  [Nneg: 5,  Binary: 120]
Objective nonzeros   :       4
Linear constraints   :      38  [Less: 3,  Equal: 35]
  Nonzeros           :     251
  RHS nonzeros       :      31

Variables            : Min LB: 0.000000         Max UB: 1.000000       
Objective nonzeros   : Min   : 1.000000         Max   : 8.000000       
Linear constraints   :
  Nonzeros           : Min   : 1.000000         Max   : 1993.000       
  RHS nonzeros       : Min   : 1.000000         Max   : 1.000000       
Found incumbent of value 227376.000000 after 0.00 sec. (0.01 ticks)
Tried aggregator 2 times.
MIP Presolve eliminated 1 rows and 1 columns.
Aggregator did 2 substitutions.
Reduced MIP has 35 rows, 122 columns, and 246 nonzeros.
Reduced MIP has 120 binaries, 0 generals, 0 SOSs, and 0 indicators.
Presolve time = 0.00 sec. (0.30 ticks)
Probing fixed 0 vars, tightened 8 bounds.
Probing time = 0.00 sec. (0.18 ticks)
Tried aggregator 1 time.
Reduced MIP has 35 rows, 122 columns, and 246 nonzeros.
Reduced MIP has 120 binaries, 2 generals, 0 SOSs, and 0 indicators.
Presolve time = 0.00 sec. (0.16 ticks)
Probing time = 0.00 sec. (0.10 ticks)
Clique table members: 30.
MIP emphasis: balance optimality and feasibility.
MIP search method: dynamic search.
Parallel mode: none, using 1 thread.
Root relaxation solution time = 0.00 sec. (0.16 ticks)

        Nodes                                         Cuts/
   Node  Left     Objective  IInf  Best Integer    Best Bound    ItCnt     Gap

*     0+    0                       227376.0000        0.0000           100.00%
      0     0   106582.5000     8   227376.0000   106582.5000       21   53.12%
*     0+    0                       110011.0000   106582.5000             3.12%
      0     0   106582.5000    10   110011.0000       Cuts: 5       32    3.12%
*     0+    0                       108187.0000   106582.5000             1.48%
      0     0   106582.5000    10   108187.0000       Cuts: 3       36    1.48%
*     0+    0                       108001.0000   106582.5000             1.31%
      0     2   106582.5000    10   108001.0000   106582.5000       36    1.31%
Elapsed time = 0.01 sec. (3.63 ticks, tree = 0.01 MB, solutions = 4)
*   263   163      integral     0   107331.0000   106582.5000      513    0.70%
*   363+  215                       107304.0000   106582.5000             0.67%
*   363+  215                       107299.0000   106582.5000             0.67%
*   363+  214                       107275.0000   106582.5000             0.65%
*   363+  214                       107252.0000   106582.5000             0.62%
*   520+  254                       106832.0000   106582.5000             0.23%
*  1295+  200                       106810.0000   106587.0000             0.21%
*  1695+  357                       106789.0000   106587.0000             0.19%
*  1695+  304                       106658.0000   106587.0000             0.07%
   1906   423        cutoff         106658.0000   106587.0000     3105    0.07%
   1907   424   106587.0000     5   106658.0000   106587.0000     3106    0.07%
   1908   425   106587.0000     6   106658.0000   106587.0000     3108    0.07%
   1909   424        cutoff         106658.0000   106587.0000     3109    0.07%
   1910   424   106587.0000     5   106658.0000   106587.0000     3111    0.07%
   1911   423        cutoff         106658.0000   106587.0000     3113    0.07%
   1912   423   106587.0000     5   106658.0000   106587.0000     3114    0.07%
   1913   423   106587.0000     5   106658.0000   106587.0000     3115    0.07%
   1914   423   106587.0000     5   106658.0000   106587.0000     3116    0.07%
*  2595+  544                       106654.0000   106587.0000             0.06%
*  3695+ 1015                       106634.0000   106587.0000             0.04%
*  4095+ 1161                       106626.0000   106587.0000             0.04%
*  4195+ 1205                       106622.0000   106587.0000             0.03%
*  6658  2020      integral     0   106619.0000   106587.0000     9789    0.03%
*  8478  2230      integral     0   106601.0000   106587.0000    12433    0.01%
*  8494  2137      integral     0   106594.0000   106587.0000    12452    0.01%

Root node processing (before b&c):
  Real time             =    0.01 sec. (3.64 ticks)
Sequential b&c:
  Real time             =    1.32 sec. (862.60 ticks)
                          ------------
Total (root+branch&cut) =    1.33 sec. (866.24 ticks)

Solution pool: 20 solutions saved.

MIP - Integer optimal, tolerance (0.0001/1e-06):  Objective =  1.0659400000e+05
Current MIP best bound =  1.0658700000e+05 (gap = 7, 0.01%)
Solution time =    1.33 sec.  Iterations = 12452  Nodes = 8495 (2137)
Deterministic time = 866.24 ticks  (650.48 ticks/sec)


Incumbent solution written to file '/tmp/tmpPhlRr9.cplex.sol'.
